Full Automatic Scheme with Equal Subdivision
    0
Automatic
  50

